WARNING: for repeatability, setting FPU to use double precision
============================[ Problem Statistics ]=============================
|                                                                             |
|  Number of variables:          5776                                         |
|  Number of clauses:           17200                                         |
|  Parse time:                   0.01 s                                       |
|                                                                             |
c ============================[ Search Statistics ]==============================
c | Conflicts |          ORIGINAL         |          LEARNT          | Progress |
c |           |    Vars  Clauses Literals |    Limit  Clauses Lit/Cl |          |
c ===============================================================================
c Switched to VSIDS.
c Switched to LRB.
c Switched to VSIDS.
c Switched to LRB.
c Switched to VSIDS.
c Switched to LRB.
c Switched to VSIDS.
c Switched to LRB.
c Switched to VSIDS.
c Switched to LRB.
c Switched to VSIDS.
c Switched to LRB.
c Switched to VSIDS.
c Switched to LRB.
c Switched to VSIDS.
c Switched to LRB.
c Switched to VSIDS.
c Switched to LRB.
c Switched to VSIDS.
c Switched to LRB.
c Switched to VSIDS.
c Switched to LRB.
c Switched to VSIDS.
c Switched to LRB.
c Switched to VSIDS.
c Switched to LRB.
c Switched to VSIDS.
c Switched to LRB.
c Switched to VSIDS.
c ===============================================================================
restarts                  : 10838
conflicts                 : 5340796        (1496 /sec)
decisions                 : 6402008        (0.00 % random) (1793 /sec)
propagations              : 4910843535     (1375461 /sec)
conflict literals         : 302019203      (53.54 % deleted)

conflicts w/ DIP found    : 3443608        (64.48 % of conflicts)
conflicts w/ dangerous DIP: 0              (0.00 % of conflicts)
conflicts w/ DIP-learning : 32256          (0.60 % of conflicts)
decisions on ext vars     : 17451          (0.27 % of decisions)
total ext vars            : 3514        
tried delete ext vars     : 0           
deleted ext vars          : 0           
max ext vars              : 3514        

Memory used               : 330.00 MB
CPU time                  : 3570.33 s
DIP computation time      : 81.2376 s (2.28 % of total time)
ER_sel time               : 6.02483 s
ER_add time               : 0.014965 s
ER_delC time              : 0 s
ER_delV time              : 0 s
ER_sub time               : 8.20455 s
ER_stat time              : 0 s

INDETERMINATE
